/*********************************************
    * Lab01 - simple
    * Author: Coso
    * Creation Date: Mar, 2019
    *********************************************/
instance_name = "small_instance_20_simple";

d = 2;
r = 3;

SCj = [127 110];
Dk = [31 30 76];

Cjk = [[75 88 67]
 [32 43 86]];
